%SETS
JOBS = 1..50;
MACHINES = 1..5;
SPEED    = 1;

time = array3d(JOBS,MACHINES,1..SPEED,[1, 1, 2, 3, 4, 3, 7, 1, 13, 1, 7, 3, 5, 1, 1, 10, 21, 2, 7, 13, 14, 1, 1, 1, 13, 1, 3, 20, 4, 7, 2, 7, 11, 1, 8, 28, 8, 2, 9, 1, 3, 15, 2, 2, 1, 1, 7, 1, 1, 4, 1, 5, 1, 5, 7, 1, 3, 7, 3, 1, 4, 6, 4, 18, 5, 14, 1, 1, 10, 3, 1, 16, 2, 8, 8, 13, 6, 8, 2, 1, 14, 3, 21, 6, 6, 1, 18, 3, 5, 3, 1, 14, 5, 1, 6, 2, 4, 13, 2, 15, 6, 1, 16, 7, 37, 1, 1, 17, 7, 1, 8, 8, 16, 7, 1, 1, 1, 1, 1, 12, 4, 5, 11, 1, 2, 5, 22, 5, 1, 10, 1, 10, 3, 12, 8, 5, 1, 1, 1, 1, 1, 1, 7, 5, 1, 1, 21, 5, 1, 1, 8, 1, 5, 22, 11, 1, 4, 6, 11, 1, 1, 1, 4, 5, 5, 2, 28, 5, 3, 5, 8, 7, 1, 1, 2, 6, 1, 8, 1, 1, 10, 1, 6, 4, 16, 1, 1, 8, 9, 15, 17, 1, 1, 6, 18, 19, 5, 15, 6, 3, 4, 5, 5, 16, 15, 3, 20, 1, 1, 1, 4, 1, 18, 11, 1, 1, 2, 1, 10, 2, 17, 5, 13, 11, 14, 3, 5, 10, 2, 4, 5, 1, 5, 3, 10, 2, 14, 5, 1, 9, 6, 1, 3, 7, 15, 1, 23, 2, 23, 5]);
energy = array3d(JOBS,MACHINES,1..SPEED,[99, 99, 98, 97, 96, 97, 93, 99, 87, 99, 93, 97, 95, 99, 99, 90, 81, 98, 93, 87, 86, 99, 99, 99, 87, 99, 97, 81, 96, 93, 98, 93, 89, 99, 92, 75, 92, 98, 91, 99, 97, 86, 98, 98, 99, 99, 93, 99, 99, 96, 99, 95, 99, 95, 93, 99, 97, 93, 97, 99, 96, 94, 96, 83, 95, 86, 99, 99, 90, 97, 99, 85, 98, 92, 92, 87, 94, 92, 98, 99, 86, 97, 81, 94, 94, 99, 83, 97, 95, 97, 99, 86, 95, 99, 94, 98, 96, 87, 98, 86, 94, 99, 85, 93, 69, 99, 99, 84, 93, 99, 92, 92, 85, 93, 99, 99, 99, 99, 99, 88, 96, 95, 89, 99, 98, 95, 80, 95, 99, 90, 99, 90, 97, 88, 92, 95, 99, 99, 99, 99, 99, 99, 93, 95, 99, 99, 81, 95, 99, 99, 92, 99, 95, 80, 89, 99, 96, 94, 89, 99, 99, 99, 96, 95, 95, 98, 75, 95, 97, 95, 92, 93, 99, 99, 98, 94, 99, 92, 99, 99, 90, 99, 94, 96, 85, 99, 99, 92, 91, 86, 84, 99, 99, 94, 83, 82, 95, 86, 94, 97, 96, 95, 95, 85, 86, 97, 81, 99, 99, 99, 96, 99, 83, 89, 99, 99, 98, 99, 90, 98, 84, 95, 87, 89, 86, 97, 95, 90, 98, 96, 95, 99, 95, 97, 90, 98, 86, 95, 99, 91, 94, 99, 97, 93, 86, 99, 79, 98, 79, 95]);
precedence = array2d(JOBS,MACHINES,[1, 2, 4, 0, 3, 4, 0, 3, 1, 2, 2, 4, 3, 0, 1, 1, 3, 4, 2, 0, 2, 1, 3, 4, 0, 3, 0, 4, 1, 2, 3, 0, 1, 4, 2, 1, 0, 4, 2, 3, 2, 3, 1, 4, 0, 0, 2, 3, 4, 1, 1, 0, 4, 2, 3, 4, 0, 1, 3, 2, 2, 1, 0, 4, 3, 1, 2, 0, 4, 3, 1, 2, 4, 3, 0, 0, 2, 1, 3, 4, 0, 1, 3, 4, 2, 2, 4, 1, 3, 0, 4, 3, 1, 0, 2, 1, 4, 0, 3, 2, 1, 0, 4, 3, 2, 2, 3, 4, 1, 0, 2, 1, 3, 4, 0, 0, 1, 2, 4, 3, 3, 1, 0, 2, 4, 1, 2, 3, 0, 4, 0, 4, 3, 2, 1, 0, 2, 4, 3, 1, 1, 2, 3, 0, 4, 3, 1, 2, 0, 4, 0, 4, 1, 3, 2, 3, 0, 2, 1, 4, 3, 4, 2, 0, 1, 1, 4, 0, 3, 2, 1, 2, 4, 0, 3, 2, 1, 0, 4, 3, 3, 4, 0, 1, 2, 1, 4, 3, 2, 0, 4, 1, 2, 0, 3, 3, 2, 4, 0, 1, 2, 1, 4, 0, 3, 4, 2, 3, 0, 1, 4, 2, 0, 3, 1, 1, 3, 4, 0, 2, 1, 3, 2, 0, 4, 3, 4, 0, 2, 1, 0, 1, 3, 4, 2, 0, 1, 2, 4, 3, 2, 4, 0, 1, 3, 4, 3, 0, 2, 1]);